%chk=temp.chk
#rhf/3-21g nosymm force



0 1
